p cnf 23 9
e 1 0
a 2 0
e 3 4 5 6 7 8 0
a 9 10 11 0
e 12 0
a 13 0
e 14 15 0
a 16 17 0
e 18 0
a 19 0
e 20 0
a 21 22 23 0
-8 2 -16 -15 0
-6 -7 -16 -18 17 0
-14 17 0
-18 -6 10 0
-1 16 0
15 -13 21 0
4 -14 1 21 0
-12 9 21 0
16 13 -3 0
